array [1..2] of int: X_INTRODUCED_8 = [-1,1];
array [1..2] of int: X_INTRODUCED_19 = [1,1];
array [1..2] of int: X_INTRODUCED_20 = [1,-1];
array [1..3] of int: X_INTRODUCED_54 = [1,1,1];
var 0..5000: X_INTRODUCED_0;
var 0..5000: X_INTRODUCED_1;
var 0..5000: X_INTRODUCED_2;
var 0..5000: X_INTRODUCED_3;
var 0..5000: X_INTRODUCED_4;
var 0..5000: X_INTRODUCED_5;
var 0..5000: X_INTRODUCED_6;
var 0..5000: X_INTRODUCED_7;
var int: result:: output_var;
var bool: X_INTRODUCED_21 ::var_is_introduced :: is_defined_var;
var bool: X_INTRODUCED_22 ::var_is_introduced :: is_defined_var;
var bool: X_INTRODUCED_23 ::var_is_introduced :: is_defined_var;
var 0..1: X_INTRODUCED_24 ::var_is_introduced :: is_defined_var;
var bool: X_INTRODUCED_25 ::var_is_introduced :: is_defined_var;
var bool: X_INTRODUCED_26 ::var_is_introduced :: is_defined_var;
var bool: X_INTRODUCED_27 ::var_is_introduced :: is_defined_var;
var 0..1: X_INTRODUCED_28 ::var_is_introduced :: is_defined_var;
var bool: X_INTRODUCED_31 ::var_is_introduced :: is_defined_var;
var bool: X_INTRODUCED_32 ::var_is_introduced :: is_defined_var;
var bool: X_INTRODUCED_33 ::var_is_introduced :: is_defined_var;
var 0..1: X_INTRODUCED_34 ::var_is_introduced :: is_defined_var;
var bool: X_INTRODUCED_40 ::var_is_introduced :: is_defined_var;
var bool: X_INTRODUCED_41 ::var_is_introduced :: is_defined_var;
var bool: X_INTRODUCED_42 ::var_is_introduced :: is_defined_var;
var 0..1: X_INTRODUCED_43 ::var_is_introduced :: is_defined_var;
var bool: X_INTRODUCED_44 ::var_is_introduced :: is_defined_var;
var bool: X_INTRODUCED_45 ::var_is_introduced :: is_defined_var;
var bool: X_INTRODUCED_46 ::var_is_introduced :: is_defined_var;
var 0..1: X_INTRODUCED_47 ::var_is_introduced :: is_defined_var;
var bool: X_INTRODUCED_48 ::var_is_introduced :: is_defined_var;
var bool: X_INTRODUCED_49 ::var_is_introduced :: is_defined_var;
var bool: X_INTRODUCED_50 ::var_is_introduced :: is_defined_var;
var 0..1: X_INTRODUCED_51 ::var_is_introduced :: is_defined_var;
var bool: X_INTRODUCED_55 ::var_is_introduced :: is_defined_var;
var bool: X_INTRODUCED_56 ::var_is_introduced :: is_defined_var;
var bool: X_INTRODUCED_57 ::var_is_introduced :: is_defined_var;
var 0..1: X_INTRODUCED_58 ::var_is_introduced :: is_defined_var;
var bool: X_INTRODUCED_59 ::var_is_introduced :: is_defined_var;
var bool: X_INTRODUCED_60 ::var_is_introduced :: is_defined_var;
var bool: X_INTRODUCED_61 ::var_is_introduced :: is_defined_var;
var 0..1: X_INTRODUCED_62 ::var_is_introduced :: is_defined_var;
var bool: X_INTRODUCED_63 ::var_is_introduced :: is_defined_var;
var bool: X_INTRODUCED_64 ::var_is_introduced :: is_defined_var;
var bool: X_INTRODUCED_65 ::var_is_introduced :: is_defined_var;
var 0..1: X_INTRODUCED_66 ::var_is_introduced :: is_defined_var;
var bool: X_INTRODUCED_69 ::var_is_introduced :: is_defined_var;
var bool: X_INTRODUCED_70 ::var_is_introduced :: is_defined_var;
var bool: X_INTRODUCED_71 ::var_is_introduced :: is_defined_var;
var 0..1: X_INTRODUCED_72 ::var_is_introduced :: is_defined_var;
var bool: X_INTRODUCED_73 ::var_is_introduced :: is_defined_var;
var bool: X_INTRODUCED_74 ::var_is_introduced :: is_defined_var;
var bool: X_INTRODUCED_75 ::var_is_introduced :: is_defined_var;
var 0..1: X_INTRODUCED_76 ::var_is_introduced :: is_defined_var;
var bool: X_INTRODUCED_77 ::var_is_introduced :: is_defined_var;
var bool: X_INTRODUCED_78 ::var_is_introduced :: is_defined_var;
var bool: X_INTRODUCED_79 ::var_is_introduced :: is_defined_var;
var 0..1: X_INTRODUCED_80 ::var_is_introduced :: is_defined_var;
var bool: X_INTRODUCED_83 ::var_is_introduced :: is_defined_var;
var bool: X_INTRODUCED_84 ::var_is_introduced :: is_defined_var;
var bool: X_INTRODUCED_85 ::var_is_introduced :: is_defined_var;
var 0..1: X_INTRODUCED_86 ::var_is_introduced :: is_defined_var;
var bool: X_INTRODUCED_87 ::var_is_introduced :: is_defined_var;
var bool: X_INTRODUCED_88 ::var_is_introduced :: is_defined_var;
var bool: X_INTRODUCED_89 ::var_is_introduced :: is_defined_var;
var 0..1: X_INTRODUCED_90 ::var_is_introduced :: is_defined_var;
var bool: X_INTRODUCED_91 ::var_is_introduced :: is_defined_var;
var bool: X_INTRODUCED_92 ::var_is_introduced :: is_defined_var;
var bool: X_INTRODUCED_93 ::var_is_introduced :: is_defined_var;
var 0..1: X_INTRODUCED_94 ::var_is_introduced :: is_defined_var;
array [1..8] of var int: nodes:: output_array([1..8]) = [X_INTRODUCED_0,X_INTRODUCED_1,X_INTRODUCED_2,X_INTRODUCED_3,X_INTRODUCED_4,X_INTRODUCED_5,X_INTRODUCED_6,X_INTRODUCED_7];
constraint int_lin_le(X_INTRODUCED_8,[X_INTRODUCED_1,X_INTRODUCED_0],0);
constraint int_lin_le(X_INTRODUCED_8,[X_INTRODUCED_2,X_INTRODUCED_0],0);
constraint int_lin_le(X_INTRODUCED_8,[X_INTRODUCED_3,X_INTRODUCED_0],0);
constraint int_lin_le(X_INTRODUCED_8,[X_INTRODUCED_4,X_INTRODUCED_0],0);
constraint int_lin_le(X_INTRODUCED_8,[X_INTRODUCED_5,X_INTRODUCED_2],-2);
constraint int_lin_le(X_INTRODUCED_8,[X_INTRODUCED_5,X_INTRODUCED_1],-2);
constraint int_lin_le(X_INTRODUCED_8,[X_INTRODUCED_6,X_INTRODUCED_4],-2);
constraint int_lin_le(X_INTRODUCED_8,[X_INTRODUCED_6,X_INTRODUCED_3],-2);
constraint int_lin_le(X_INTRODUCED_8,[X_INTRODUCED_7,X_INTRODUCED_6],-1);
constraint int_lin_le(X_INTRODUCED_8,[X_INTRODUCED_7,X_INTRODUCED_5],-1);
constraint int_lin_le(X_INTRODUCED_8,[result,X_INTRODUCED_1],-2);
constraint int_lin_le(X_INTRODUCED_8,[result,X_INTRODUCED_2],-2);
constraint int_lin_le(X_INTRODUCED_8,[result,X_INTRODUCED_3],-2);
constraint int_lin_le(X_INTRODUCED_8,[result,X_INTRODUCED_4],-2);
constraint int_lin_le(X_INTRODUCED_8,[result,X_INTRODUCED_5],-1);
constraint int_lin_le(X_INTRODUCED_8,[result,X_INTRODUCED_6],-1);
constraint int_lin_le(X_INTRODUCED_8,[result,X_INTRODUCED_7],-1);
constraint int_lin_le(X_INTRODUCED_19,[X_INTRODUCED_24,X_INTRODUCED_28],0);
constraint int_lin_le(X_INTRODUCED_19,[X_INTRODUCED_24,X_INTRODUCED_34],0);
constraint int_lin_le(X_INTRODUCED_19,[X_INTRODUCED_28,X_INTRODUCED_34],0);
constraint int_lin_le(X_INTRODUCED_54,[X_INTRODUCED_43,X_INTRODUCED_47,X_INTRODUCED_51],0);
constraint int_lin_le(X_INTRODUCED_54,[X_INTRODUCED_58,X_INTRODUCED_62,X_INTRODUCED_66],0);
constraint int_lin_le(X_INTRODUCED_54,[X_INTRODUCED_72,X_INTRODUCED_76,X_INTRODUCED_80],0);
constraint int_lin_le(X_INTRODUCED_54,[X_INTRODUCED_86,X_INTRODUCED_90,X_INTRODUCED_94],0);
constraint int_lin_le_reif(X_INTRODUCED_20,[X_INTRODUCED_5,X_INTRODUCED_6],0,X_INTRODUCED_21):: defines_var(X_INTRODUCED_21);
constraint int_lin_le_reif(X_INTRODUCED_20,[X_INTRODUCED_6,X_INTRODUCED_5],0,X_INTRODUCED_22):: defines_var(X_INTRODUCED_22);
constraint array_bool_and([X_INTRODUCED_21,X_INTRODUCED_22],X_INTRODUCED_23):: defines_var(X_INTRODUCED_23);
constraint bool2int(X_INTRODUCED_23,X_INTRODUCED_24):: defines_var(X_INTRODUCED_24);
constraint int_lin_le_reif(X_INTRODUCED_20,[X_INTRODUCED_5,X_INTRODUCED_7],0,X_INTRODUCED_25):: defines_var(X_INTRODUCED_25);
constraint int_lin_le_reif(X_INTRODUCED_20,[X_INTRODUCED_7,X_INTRODUCED_5],0,X_INTRODUCED_26):: defines_var(X_INTRODUCED_26);
constraint array_bool_and([X_INTRODUCED_25,X_INTRODUCED_26],X_INTRODUCED_27):: defines_var(X_INTRODUCED_27);
constraint bool2int(X_INTRODUCED_27,X_INTRODUCED_28):: defines_var(X_INTRODUCED_28);
constraint int_lin_le_reif(X_INTRODUCED_20,[X_INTRODUCED_6,X_INTRODUCED_7],0,X_INTRODUCED_31):: defines_var(X_INTRODUCED_31);
constraint int_lin_le_reif(X_INTRODUCED_20,[X_INTRODUCED_7,X_INTRODUCED_6],0,X_INTRODUCED_32):: defines_var(X_INTRODUCED_32);
constraint array_bool_and([X_INTRODUCED_31,X_INTRODUCED_32],X_INTRODUCED_33):: defines_var(X_INTRODUCED_33);
constraint bool2int(X_INTRODUCED_33,X_INTRODUCED_34):: defines_var(X_INTRODUCED_34);
constraint int_lin_le_reif(X_INTRODUCED_20,[X_INTRODUCED_1,X_INTRODUCED_2],1,X_INTRODUCED_40):: defines_var(X_INTRODUCED_40);
constraint int_lin_le_reif(X_INTRODUCED_20,[X_INTRODUCED_2,X_INTRODUCED_1],0,X_INTRODUCED_41):: defines_var(X_INTRODUCED_41);
constraint array_bool_and([X_INTRODUCED_40,X_INTRODUCED_41],X_INTRODUCED_42):: defines_var(X_INTRODUCED_42);
constraint bool2int(X_INTRODUCED_42,X_INTRODUCED_43):: defines_var(X_INTRODUCED_43);
constraint int_lin_le_reif(X_INTRODUCED_20,[X_INTRODUCED_1,X_INTRODUCED_3],1,X_INTRODUCED_44):: defines_var(X_INTRODUCED_44);
constraint int_lin_le_reif(X_INTRODUCED_20,[X_INTRODUCED_3,X_INTRODUCED_1],0,X_INTRODUCED_45):: defines_var(X_INTRODUCED_45);
constraint array_bool_and([X_INTRODUCED_44,X_INTRODUCED_45],X_INTRODUCED_46):: defines_var(X_INTRODUCED_46);
constraint bool2int(X_INTRODUCED_46,X_INTRODUCED_47):: defines_var(X_INTRODUCED_47);
constraint int_lin_le_reif(X_INTRODUCED_20,[X_INTRODUCED_1,X_INTRODUCED_4],1,X_INTRODUCED_48):: defines_var(X_INTRODUCED_48);
constraint int_lin_le_reif(X_INTRODUCED_20,[X_INTRODUCED_4,X_INTRODUCED_1],0,X_INTRODUCED_49):: defines_var(X_INTRODUCED_49);
constraint array_bool_and([X_INTRODUCED_48,X_INTRODUCED_49],X_INTRODUCED_50):: defines_var(X_INTRODUCED_50);
constraint bool2int(X_INTRODUCED_50,X_INTRODUCED_51):: defines_var(X_INTRODUCED_51);
constraint int_lin_le_reif(X_INTRODUCED_20,[X_INTRODUCED_2,X_INTRODUCED_1],1,X_INTRODUCED_55):: defines_var(X_INTRODUCED_55);
constraint int_lin_le_reif(X_INTRODUCED_20,[X_INTRODUCED_1,X_INTRODUCED_2],0,X_INTRODUCED_56):: defines_var(X_INTRODUCED_56);
constraint array_bool_and([X_INTRODUCED_55,X_INTRODUCED_56],X_INTRODUCED_57):: defines_var(X_INTRODUCED_57);
constraint bool2int(X_INTRODUCED_57,X_INTRODUCED_58):: defines_var(X_INTRODUCED_58);
constraint int_lin_le_reif(X_INTRODUCED_20,[X_INTRODUCED_2,X_INTRODUCED_3],1,X_INTRODUCED_59):: defines_var(X_INTRODUCED_59);
constraint int_lin_le_reif(X_INTRODUCED_20,[X_INTRODUCED_3,X_INTRODUCED_2],0,X_INTRODUCED_60):: defines_var(X_INTRODUCED_60);
constraint array_bool_and([X_INTRODUCED_59,X_INTRODUCED_60],X_INTRODUCED_61):: defines_var(X_INTRODUCED_61);
constraint bool2int(X_INTRODUCED_61,X_INTRODUCED_62):: defines_var(X_INTRODUCED_62);
constraint int_lin_le_reif(X_INTRODUCED_20,[X_INTRODUCED_2,X_INTRODUCED_4],1,X_INTRODUCED_63):: defines_var(X_INTRODUCED_63);
constraint int_lin_le_reif(X_INTRODUCED_20,[X_INTRODUCED_4,X_INTRODUCED_2],0,X_INTRODUCED_64):: defines_var(X_INTRODUCED_64);
constraint array_bool_and([X_INTRODUCED_63,X_INTRODUCED_64],X_INTRODUCED_65):: defines_var(X_INTRODUCED_65);
constraint bool2int(X_INTRODUCED_65,X_INTRODUCED_66):: defines_var(X_INTRODUCED_66);
constraint int_lin_le_reif(X_INTRODUCED_20,[X_INTRODUCED_3,X_INTRODUCED_1],1,X_INTRODUCED_69):: defines_var(X_INTRODUCED_69);
constraint int_lin_le_reif(X_INTRODUCED_20,[X_INTRODUCED_1,X_INTRODUCED_3],0,X_INTRODUCED_70):: defines_var(X_INTRODUCED_70);
constraint array_bool_and([X_INTRODUCED_69,X_INTRODUCED_70],X_INTRODUCED_71):: defines_var(X_INTRODUCED_71);
constraint bool2int(X_INTRODUCED_71,X_INTRODUCED_72):: defines_var(X_INTRODUCED_72);
constraint int_lin_le_reif(X_INTRODUCED_20,[X_INTRODUCED_3,X_INTRODUCED_2],1,X_INTRODUCED_73):: defines_var(X_INTRODUCED_73);
constraint int_lin_le_reif(X_INTRODUCED_20,[X_INTRODUCED_2,X_INTRODUCED_3],0,X_INTRODUCED_74):: defines_var(X_INTRODUCED_74);
constraint array_bool_and([X_INTRODUCED_73,X_INTRODUCED_74],X_INTRODUCED_75):: defines_var(X_INTRODUCED_75);
constraint bool2int(X_INTRODUCED_75,X_INTRODUCED_76):: defines_var(X_INTRODUCED_76);
constraint int_lin_le_reif(X_INTRODUCED_20,[X_INTRODUCED_3,X_INTRODUCED_4],1,X_INTRODUCED_77):: defines_var(X_INTRODUCED_77);
constraint int_lin_le_reif(X_INTRODUCED_20,[X_INTRODUCED_4,X_INTRODUCED_3],0,X_INTRODUCED_78):: defines_var(X_INTRODUCED_78);
constraint array_bool_and([X_INTRODUCED_77,X_INTRODUCED_78],X_INTRODUCED_79):: defines_var(X_INTRODUCED_79);
constraint bool2int(X_INTRODUCED_79,X_INTRODUCED_80):: defines_var(X_INTRODUCED_80);
constraint int_lin_le_reif(X_INTRODUCED_20,[X_INTRODUCED_4,X_INTRODUCED_1],1,X_INTRODUCED_83):: defines_var(X_INTRODUCED_83);
constraint int_lin_le_reif(X_INTRODUCED_20,[X_INTRODUCED_1,X_INTRODUCED_4],0,X_INTRODUCED_84):: defines_var(X_INTRODUCED_84);
constraint array_bool_and([X_INTRODUCED_83,X_INTRODUCED_84],X_INTRODUCED_85):: defines_var(X_INTRODUCED_85);
constraint bool2int(X_INTRODUCED_85,X_INTRODUCED_86):: defines_var(X_INTRODUCED_86);
constraint int_lin_le_reif(X_INTRODUCED_20,[X_INTRODUCED_4,X_INTRODUCED_2],1,X_INTRODUCED_87):: defines_var(X_INTRODUCED_87);
constraint int_lin_le_reif(X_INTRODUCED_20,[X_INTRODUCED_2,X_INTRODUCED_4],0,X_INTRODUCED_88):: defines_var(X_INTRODUCED_88);
constraint array_bool_and([X_INTRODUCED_87,X_INTRODUCED_88],X_INTRODUCED_89):: defines_var(X_INTRODUCED_89);
constraint bool2int(X_INTRODUCED_89,X_INTRODUCED_90):: defines_var(X_INTRODUCED_90);
constraint int_lin_le_reif(X_INTRODUCED_20,[X_INTRODUCED_4,X_INTRODUCED_3],1,X_INTRODUCED_91):: defines_var(X_INTRODUCED_91);
constraint int_lin_le_reif(X_INTRODUCED_20,[X_INTRODUCED_3,X_INTRODUCED_4],0,X_INTRODUCED_92):: defines_var(X_INTRODUCED_92);
constraint array_bool_and([X_INTRODUCED_91,X_INTRODUCED_92],X_INTRODUCED_93):: defines_var(X_INTRODUCED_93);
constraint bool2int(X_INTRODUCED_93,X_INTRODUCED_94):: defines_var(X_INTRODUCED_94);
solve  minimize result;
